#N HF/STO-3G OPT FREQ Geom=Connectivity 

C2H4 Yurilis Miranda

0 1
C 
C 1 B1
H 2 B2 1 A1
H 2 B3 1 A2 3 D1
H 1 B4 2 A3 3 D2
H 1 B5 2 A4 3 D3

B1 1.339165932
B2 1.102273394
B3 1.102273394
B4 1.102273394
B5 1.102273394
A1 121.0866784
A2 121.0866784
A3 121.0866784
A4 121.0866784
D1 180.0000000
D2 180.0000000
D3 -0.000000000

1 2 2 5 1 6 1
2 1 2 3 1 4 1
3 2 1
4 2 1
5 1 1
6 1 1

